SLURM_JOB_ID: 55402826
SLURM_JOB_USER: vsc34888
SLURM_JOB_ACCOUNT: lp_elect_gen_modeling
SLURM_JOB_NAME: 118_by_stages_loop_D_hnb_1
SLURM_CLUSTER_NAME: genius
SLURM_JOB_PARTITION: batch
SLURM_NNODES: 1
SLURM_NODELIST: r27i27n19
SLURM_JOB_CPUS_PER_NODE: 36
Date: Mon Dec  4 14:07:23 CET 2023
Walltime: 03-00:00:00
========================================================================
Activation OK
Starting runs

 #### Academic research license - for non-commercial use only #### 

IEEE118_ByStages_nc250
/lustre1/scratch/348/vsc34888/JointResearch/05.Models/06.Benchmarking/D.Representative_days_based_on_RES_and_Demand
gurobi
['oSN_Main_DCOPF.py', '--case', 'IEEE118_ByStages_nc250']
Namespace(case='IEEE118_ByStages_nc250', dir='/lustre1/scratch/348/vsc34888/JointResearch/05.Models/06.Benchmarking/D.Representative_days_based_on_RES_and_Demand', solver='gurobi')
Namespace(case='IEEE118_ByStages_nc250', dir='/lustre1/scratch/348/vsc34888/JointResearch/05.Models/06.Benchmarking/D.Representative_days_based_on_RES_and_Demand', solver='gurobi')
Reading    input data                 ...  1 s
Setting up input data                 ...  1 s
Generating objective function         ...  2 s
Generating operation & investment     ...  0 s
Generating balance                    ...  19 s
Generating storage operation          ...  0 s
Generating generation commitment      ...  43 s
Generating generation capacity        ...  41 s
Generating network    capacity        ...  54 s
Generating network    constraints     ...  140 s
Econometric analysis  constraints     ...  0 s
Set parameter Username
Set parameter TokenServer to value "SET-S-ME-LM3.luna.kuleuven.be"
Read LP format model from file /tmp/tmpcomkxmt6.pyomo.lp
Reading time = 0.93 seconds
x1: 364204 rows, 258595 columns, 939468 nonzeros
Set parameter QCPDual to value 1
Set parameter LogFile to value "/lustre1/scratch/348/vsc34888/JointResearch/05.Models/06.Benchmarking/D.Representative_days_based_on_RES_and_Demand/IEEE118_ByStages_nc250/openStarNet_IEEE118_ByStages_nc250.log"
Set parameter Method to value 2
Set parameter MIPFocus to value 1
Set parameter Presolve to value 2
Set parameter RINS to value 100
Set parameter MIPGap to value 0.01
Set parameter Threads to value 36
Set parameter TimeLimit to value 259200
Set parameter IterationLimit to value 760000000
Gurobi Optimizer version 9.5.0 build v9.5.0rc5 (linux64)
Thread count: 36 physical cores, 36 logical processors, using up to 36 threads
Optimize a model with 364204 rows, 258595 columns and 939468 nonzeros
Model fingerprint: 0x10fd66f9
Variable types: 258550 continuous, 45 integer (45 binary)
Coefficient statistics:
  Matrix range     [2e-03, 9e+03]
  Objective range  [1e+00, 1e+00]
  Bounds range     [1e-04, 6e+00]
  RHS range        [1e-04, 6e+00]
Presolve removed 240720 rows and 121688 columns
Presolve time: 2.39s
Presolved: 123484 rows, 136907 columns, 446404 nonzeros
Variable types: 136862 continuous, 45 integer (45 binary)
Root relaxation presolved: 123484 rows, 136907 columns, 446404 nonzeros

Root barrier log...

Ordering time: 0.04s

Barrier statistics:
 Dense cols : 45
 AA' NZ     : 6.313e+05
 Factor NZ  : 2.424e+06 (roughly 120 MB of memory)
 Factor Ops : 6.760e+07 (less than 1 second per iteration)
 Threads    : 35

                  Objective                Residual
Iter       Primal          Dual         Primal    Dual     Compl     Time
   0   8.04518474e+06 -6.17637043e+08  1.29e+01 3.52e+02  7.16e+03     3s
   1   2.71233955e+06 -2.20273047e+08  4.06e+00 1.66e-08  1.76e+03     4s
   2   5.13852611e+05 -7.52108532e+07  4.21e-01 1.73e-08  2.99e+02     4s
   3   3.10072663e+05 -1.21265192e+07  8.27e-02 4.23e-09  4.20e+01     4s
   4   1.86211289e+05 -1.99631587e+06  8.82e-03 4.96e-10  6.57e+00     4s
   5   1.10228511e+05 -5.62946684e+05  3.64e-03 1.25e-10  2.00e+00     4s
   6   4.29567233e+04 -1.33595475e+05  1.18e-03 2.64e-11  5.22e-01     4s
   7   1.61586417e+04 -4.06152262e+04  3.30e-04 4.64e-11  1.68e-01     4s
   8   9.67921916e+03 -1.77321038e+04  1.65e-04 3.46e-12  8.08e-02     4s
   9   7.34207976e+03 -1.00448894e+04  1.14e-04 3.90e-11  5.13e-02     4s
  10   5.69247768e+03 -4.50637884e+03  8.20e-05 1.82e-12  3.01e-02     4s
  11   4.22328782e+03 -2.07616475e+03  5.41e-05 9.09e-13  1.86e-02     4s
  12   3.06645399e+03 -8.15455249e+02  3.37e-05 1.82e-12  1.14e-02     4s
  13   2.38697220e+03  2.32887398e+02  2.19e-05 1.82e-12  6.35e-03     4s
  14   1.90291522e+03  5.23362005e+02  1.42e-05 9.09e-13  4.07e-03     4s
  15   1.62118962e+03  7.10321110e+02  9.16e-06 9.09e-13  2.69e-03     4s
  16   1.51186911e+03  8.07044498e+02  7.19e-06 9.09e-13  2.08e-03     5s
  17   1.40821193e+03  8.94214759e+02  5.34e-06 3.73e-11  1.52e-03     5s
  18   1.30360983e+03  9.67136945e+02  3.51e-06 4.68e-11  9.92e-04     5s
  19   1.26238455e+03  1.01010242e+03  2.83e-06 9.09e-13  7.44e-04     5s
  20   1.19895611e+03  1.03898125e+03  1.72e-06 2.99e-11  4.72e-04     5s
  21   1.14876927e+03  1.05896854e+03  8.53e-07 1.82e-12  2.65e-04     5s
  22   1.13155668e+03  1.07375295e+03  5.70e-07 2.54e-12  1.70e-04     5s
  23   1.12132054e+03  1.08087916e+03  3.94e-07 1.12e-11  1.19e-04     5s
  24   1.11393121e+03  1.08449442e+03  2.68e-07 1.72e-11  8.68e-05     5s
  25   1.11142690e+03  1.08897393e+03  2.26e-07 1.82e-12  6.62e-05     5s
  26   1.10777766e+03  1.09099945e+03  1.65e-07 1.82e-12  4.95e-05     5s
  27   1.10496649e+03  1.09254548e+03  1.19e-07 9.09e-13  3.66e-05     5s
  28   1.10218554e+03  1.09477650e+03  7.39e-08 3.37e-12  2.18e-05     5s
  29   1.10095327e+03  1.09551240e+03  5.29e-08 9.75e-12  1.60e-05     5s
  30   1.10073082e+03  1.09570040e+03  4.93e-08 9.34e-12  1.48e-05     5s
  31   1.10020326e+03  1.09622461e+03  4.02e-08 9.09e-13  1.17e-05     5s
  32   1.09916879e+03  1.09658877e+03  2.23e-08 1.82e-12  7.61e-06     6s
  33   1.09825750e+03  1.09724122e+03  6.87e-09 2.36e-12  3.00e-06     6s
  34   1.09804742e+03  1.09756480e+03  3.33e-09 9.81e-12  1.42e-06     6s
  35   1.09801576e+03  1.09766116e+03  4.89e-09 1.47e-11  1.05e-06     6s
  36   1.09792631e+03  1.09776032e+03  2.24e-09 8.56e-12  4.89e-07     6s
  37   1.09788448e+03  1.09778178e+03  6.20e-09 6.46e-12  3.03e-07     6s
  38   1.09787288e+03  1.09781015e+03  3.69e-09 2.39e-12  1.85e-07     6s
  39   1.09786030e+03  1.09782465e+03  4.99e-09 1.82e-12  1.05e-07     6s
  40   1.09785042e+03  1.09782946e+03  3.60e-08 1.82e-12  6.18e-08     6s
  41   1.09784274e+03  1.09783292e+03  1.35e-08 1.35e-12  2.90e-08     7s
  42   1.09784037e+03  1.09783325e+03  8.68e-09 9.09e-13  2.10e-08     7s
  43   1.09783774e+03  1.09783559e+03  2.16e-09 9.09e-13  6.33e-09     7s
  44   1.09783687e+03  1.09783666e+03  2.72e-09 3.90e-12  6.09e-10     7s
  45   1.09783677e+03  1.09783677e+03  6.48e-10 1.82e-12  1.80e-12     7s

Barrier solved model in 45 iterations and 6.83 seconds (7.74 work units)
Optimal objective 1.09783677e+03


Root crossover log...

   22262 DPushes remaining with DInf 1.4190618e-05                 7s
       0 DPushes remaining with DInf 2.8193693e-05                 8s

    7720 PPushes remaining with PInf 2.9338542e-06                 8s
       0 PPushes remaining with PInf 0.0000000e+00                10s

  Push phase complete: Pinf 0.0000000e+00, Dinf 8.2787902e-06     10s


Root simplex log...

Iteration    Objective       Primal Inf.    Dual Inf.      Time
   11561    1.0978368e+03   0.000000e+00   8.278755e-06     10s
   11563    1.0978368e+03   0.000000e+00   0.000000e+00     10s
   11563    1.0978368e+03   0.000000e+00   0.000000e+00     10s

Root relaxation: objective 1.097837e+03, 11563 iterations, 7.38 seconds (8.53 work units)

    Nodes    |    Current Node    |     Objective Bounds      |     Work
 Expl Unexpl |  Obj  Depth IntInf | Incumbent    BestBd   Gap | It/Node Time

     0     0 1097.83677    0   39          - 1097.83677      -     -   12s
     0     0 1133.68314    0   39          - 1133.68314      -     -   88s
H    0     0                    18310.562032 1133.68314  93.8%     -  109s
H    0     0                    3595.8621579 1133.68314  68.5%     -  124s
     0     0 1134.09785    0   41 3595.86216 1134.09785  68.5%     -  126s
     0     0 1134.10084    0   41 3595.86216 1134.10084  68.5%     -  126s
     0     0 1139.65197    0   41 3595.86216 1139.65197  68.3%     -  146s
H    0     0                    3562.9736959 1139.65197  68.0%     -  158s
     0     0 1140.49131    0   41 3562.97370 1140.49131  68.0%     -  163s
     0     0 1140.61779    0   41 3562.97370 1140.61779  68.0%     -  165s
     0     0 1140.66379    0   41 3562.97370 1140.66379  68.0%     -  166s
     0     0 1140.67419    0   41 3562.97370 1140.67419  68.0%     -  167s
     0     0 1140.67646    0   41 3562.97370 1140.67646  68.0%     -  168s
     0     0 1142.08575    0   41 3562.97370 1142.08575  67.9%     -  182s
     0     0 1142.15031    0   39 3562.97370 1142.15031  67.9%     -  200s
     0     0 1142.15365    0   39 3562.97370 1142.15365  67.9%     -  201s
     0     0 1142.82517    0   39 3562.97370 1142.82517  67.9%     -  209s
     0     0 1142.84788    0   39 3562.97370 1142.84788  67.9%     -  211s
     0     0 1142.85414    0   39 3562.97370 1142.85414  67.9%     -  211s
     0     0 1142.85418    0   39 3562.97370 1142.85418  67.9%     -  212s
     0     0 1142.87587    0   39 3562.97370 1142.87587  67.9%     -  218s
H    0     0                    1349.0346982 1142.87587  15.3%     - 1422s
     0     2 1142.87587    0   39 1349.03470 1142.87587  15.3%     - 1425s
     1     4 1187.17167    1   42 1349.03470 1142.90771  15.3% 24108 1464s
     3     8 1293.54685    2   41 1349.03470 1158.17469  14.1% 23755 1553s
     7    16 1334.04639    3   40 1349.03470 1174.70928  12.9% 20317 1599s
    15    30     cutoff    4      1349.03470 1178.14013  12.7% 15161 1665s
    31    50 1182.92154    5   37 1349.03470 1178.50032  12.6% 13565 1783s
    61    76 1206.25646    6   35 1349.03470 1182.93568  12.3% 11975 1905s
    97   108 1206.35379    7   34 1349.03470 1189.67461  11.8% 10500 1973s
   133   138 1208.36289    8   33 1349.03470 1189.68322  11.8%  8887 2016s
   169   162 1209.54949    9   32 1349.03470 1189.68322  11.8%  8385 2061s
   205   187 1241.27237   10   31 1349.03470 1189.68322  11.8%  8020 2108s
   246   197 1252.21636   11   31 1349.03470 1189.68322  11.8%  7603 2160s
   288   217 1262.55392   12   31 1349.03470 1189.68322  11.8%  7264 2219s
   328   247 1268.06434   13   29 1349.03470 1189.68322  11.8%  7026 2258s
   370   282 1281.98786   14   28 1349.03470 1189.68322  11.8%  6834 2310s
   437   317 1291.97024   15   27 1349.03470 1189.68322  11.8%  6291 2366s
   504   339 1298.23426   17   24 1349.03470 1189.68322  11.8%  5874 2470s
   573   383 1304.67989   19   23 1349.03470 1189.68322  11.8%  5597 2525s
   651   399 1315.72454   21   21 1349.03470 1189.68322  11.8%  5351 2666s
   741   427 1336.52685   24   18 1349.03470 1189.68322  11.8%  5200 2722s
   820   446     cutoff   26      1349.03470 1206.43902  10.6%  5018 2861s
   913   481 1210.83366    8   34 1349.03470 1206.43902  10.6%  4927 2912s
   997   501 1232.46202   11   30 1349.03470 1206.43902  10.6%  4809 4563s
H 1034   501                    1348.8637167 1206.43902  10.6%  4747 4563s
  1067   543 1243.48279   12   28 1348.86372 1206.43902  10.6%  4739 4629s
  1159   600 1261.74870   14   27 1348.86372 1206.43902  10.6%  4677 4684s
  1270   662 1277.31736   18   23 1348.86372 1206.43902  10.6%  4550 4747s
  1376   727 1302.29694   24   18 1348.86372 1206.43902  10.6%  4502 4874s
  1527   812 1338.67892   31   10 1348.86372 1206.43902  10.6%  4341 4932s
  1696   842 1336.62901   36    4 1348.86372 1206.43902  10.6%  4124 6377s
H 1700   842                    1348.2357687 1206.43902  10.5%  4116 6377s
  1840   898 1348.18948   39    2 1348.23577 1209.67057  10.3%  4033 6513s
  2003   951 1269.16400    9   33 1348.23577 1210.86171  10.2%  3970 6613s
  2126  1021 1283.69855   11   30 1348.23577 1210.86171  10.2%  3894 6745s
  2318  1092 1329.89952   13   29 1348.23577 1210.86171  10.2%  3823 6873s
  2556  1170     cutoff   16      1348.23577 1210.86171  10.2%  3703 7023s
  2753  1228     cutoff   15      1348.23577 1210.86171  10.2%  3673 8188s
  2891  1317 1322.21384   12   28 1348.23577 1210.86171  10.2%  3665 9464s
  3130  1427     cutoff   15      1348.23577 1230.48128  8.73%  3611 9600s
  3482  1556 1277.45653   10   32 1348.23577 1247.57429  7.47%  3481 9760s
  3808  1628 1332.24044   12   28 1348.23577 1247.57429  7.47%  3415 9866s
  4114  1793     cutoff   15      1348.23577 1254.82424  6.93%  3365 9968s
  4502  1961 1300.21156   13   30 1348.23577 1254.82424  6.93%  3260 10182s
  4880  2104 1338.81378   18   25 1348.23577 1266.78977  6.04%  3209 10362s
  5292  2231 1310.58014   23   18 1348.23577 1269.62359  5.83%  3135 11975s
  5642  2397 1311.83619   21   21 1348.23577 1271.33607  5.70%  3079 12159s
  6267  2588 1324.06716    8   33 1348.23577 1275.56626  5.39%  2958 13267s
  6863  2589 1287.53279   15   39 1348.23577 1275.56626  5.39%  2874 14579s
  6865  2590 1342.41319   35   40 1348.23577 1275.56626  5.39%  2873 14602s
  6866  2591 1288.49082   12   41 1348.23577 1275.56626  5.39%  2873 14660s
  6867  2592 1320.24444   21   41 1348.23577 1275.56626  5.39%  2873 14673s
  6868  2592 1311.97420   10   41 1348.23577 1275.56626  5.39%  2872 14680s
  6869  2593 1331.14859   24   40 1348.23577 1275.56626  5.39%  2872 14709s
  6870  2594 1311.80647   23   40 1348.23577 1275.56626  5.39%  2871 14719s
  6871  2594 1288.08216   21   40 1348.23577 1275.56626  5.39%  2871 14727s
  6872  2595 1284.60995   14   40 1348.23577 1275.56626  5.39%  2870 14736s
  6873  2596 1306.98763   19   41 1348.23577 1275.56626  5.39%  2870 14758s
  6874  2596 1333.91317   34   41 1348.23577 1275.56626  5.39%  2870 14762s
  6875  2597 1320.90525   14   40 1348.23577 1275.56626  5.39%  2869 14767s
  6876  2598 1319.29205   25   40 1348.23577 1275.56626  5.39%  2869 16142s
  6877  2601 1275.56626   12   39 1348.23577 1275.56626  5.39%  2878 16157s
  6879  2605 1275.56626   13   40 1348.23577 1275.56626  5.39%  2882 16202s
  6883  2611 1315.61080   14   40 1348.23577 1275.56626  5.39%  2891 16292s
  6891  2621     cutoff   15      1348.23577 1275.56626  5.39%  2910 16366s
  6907  2631 1275.56626   16   36 1348.23577 1275.56626  5.39%  2932 16541s
  6935  2656 1275.56626   17   35 1348.23577 1275.56626  5.39%  2979 16601s
  6971  2678 1275.56626   18   34 1348.23577 1275.56626  5.39%  3008 16646s
  7007  2696 1275.56626   19   33 1348.23577 1275.56626  5.39%  3019 16697s
  7043  2710 1316.64862   20   31 1348.23577 1275.56626  5.39%  3031 16744s
  7079  2719 1329.47126   21   30 1348.23577 1275.56626  5.39%  3042 16838s
  7122  2742 1332.03043   22   29 1348.23577 1275.56626  5.39%  3061 16886s
  7167  2758     cutoff   24      1348.23577 1275.56626  5.39%  3071 16922s
  7214  2767     cutoff   24      1348.23577 1275.56626  5.39%  3071 16971s
  7267  2778 1343.78806   23   27 1348.23577 1275.56626  5.39%  3077 17016s
  7332  2790     cutoff   24      1348.23577 1275.56626  5.39%  3074 17101s
  7403  2794     cutoff   24      1348.23577 1275.56626  5.39%  3069 17148s
  7478  2782 1304.66572   24   31 1348.23577 1275.56626  5.39%  3064 17185s
  7545  2794 1324.09709   26   29 1348.23577 1275.56626  5.39%  3063 17236s
  7618  2801 1341.90097   25   30 1348.23577 1275.56626  5.39%  3061 17288s
  7704  2801 1335.77155   27   28 1348.23577 1275.56626  5.39%  3055 17346s
  7799  2804 1342.51370   28   26 1348.23577 1275.56626  5.39%  3054 20027s
  7875  2802 1346.78165   29   26 1348.23577 1275.56626  5.39%  3055 20648s
  7944  2836     cutoff   29      1348.23577 1275.56626  5.39%  3054 20717s
  8057  2871 1275.56626   19   34 1348.23577 1275.56626  5.39%  3054 20773s
  8175  2892 1287.45950   21   32 1348.23577 1275.56626  5.39%  3047 20843s
  8335  2870 1314.76824   23   29 1348.23577 1275.56626  5.39%  3033 20909s
  8462  2893 1333.05344   24   28 1348.23577 1275.56626  5.39%  3033 20976s
  8597  2906 1345.25207   26   26 1348.23577 1275.56626  5.39%  3033 22724s
  8749  2922 1276.22617   19   34 1348.23577 1275.56626  5.39%  3023 22803s
  8948  2946 1295.05400   22   31 1348.23577 1275.56626  5.39%  3010 22867s
  9176  2955 1320.48266   24   28 1348.23577 1275.56626  5.39%  2983 23028s
  9431  2927 1329.08900   26   26 1348.23577 1275.56626  5.39%  2965 23118s
  9645  2966 1334.55629   26   26 1348.23577 1275.56626  5.39%  2957 23260s
  9867  3015     cutoff   29      1348.23577 1275.56626  5.39%  2948 23423s
 10104  2999 1275.56626   23   30 1348.23577 1275.56626  5.39%  2939 23580s
 10343  3035 1286.74338   26   26 1348.23577 1275.56626  5.39%  2936 23740s
 10621  3043 1318.25460   34   18 1348.23577 1275.56626  5.39%  2925 23871s
 10923  3069 1291.95588   20   32 1348.23577 1275.56626  5.39%  2906 23982s
 11238  3065     cutoff   23      1348.23577 1275.56626  5.39%  2890 24152s
 11598  2997 1342.35250   23   30 1348.23577 1275.56626  5.39%  2870 26231s
 11749  3042 1290.30528   22   30 1348.23577 1275.56626  5.39%  2886 26413s
 12057  3086 1334.71523   26   25 1348.23577 1275.56626  5.39%  2895 26585s
 12373  3237 1275.56626   24   28 1348.23577 1275.56626  5.39%  2900 26776s
 12864  3221 1326.58508   38   14 1348.23577 1275.56626  5.39%  2871 26940s
 13359  3170 1333.78312   27   26 1348.23577 1275.56626  5.39%  2840 27128s
 13760  3102 1335.19997   27   26 1348.23577 1281.05188  4.98%  2832 27335s
 14179  3082 1344.81054   37   16 1348.23577 1281.61955  4.94%  2827 28645s
 14656  3131 1311.73106   30   24 1348.23577 1284.06899  4.76%  2814 28810s
 15324  3277 1333.61090   32   19 1348.23577 1286.12611  4.61%  2764 29014s
 15906  3468     cutoff   28      1348.23577 1287.33795  4.52%  2740 29218s
 16479  3668     cutoff   31      1348.23577 1287.78507  4.48%  2718 29946s
 17111  3800 1318.32949   31   21 1348.23577 1289.41733  4.36%  2684 30190s
 17842  4007 1336.83260   24   28 1348.23577 1290.59507  4.28%  2652 30469s
 18595  4149     cutoff   43      1348.23577 1290.89826  4.25%  2624 32131s
 19031  4355 1307.27497   24   29 1348.23577 1292.15216  4.16%  2606 32341s
 19970  4606 1342.89578   39   11 1348.23577 1293.47176  4.06%  2557 33544s
 20839  4846 1322.76926   31   21 1348.23577 1296.02859  3.87%  2522 33796s
 21860  5219 1319.82243   31   22 1348.23577 1297.17947  3.79%  2487 34858s
 23036  5567 1318.61882   33   18 1348.23577 1298.35362  3.70%  2435 35601s
 24557  5838 1343.21583   35   15 1348.23577 1300.39793  3.55%  2357 36990s
 25844  6195     cutoff   40      1348.23577 1300.73812  3.52%  2312 37267s
 27245  6508 1330.51088   40   12 1348.23577 1301.61640  3.46%  2273 38155s
 28675  6723 1323.80680   32   20 1348.23577 1303.66089  3.31%  2235 39851s
 29959  7058     cutoff   33      1348.23577 1304.40707  3.25%  2190 41988s
 31463  7507 1328.49878   31   20 1348.23577 1306.20541  3.12%  2156 43584s
 33551  8090 1338.72171   35   16 1348.23577 1307.18262  3.04%  2114 45284s
 36206  8744     cutoff   36      1348.23577 1308.36762  2.96%  2063 46665s
 39501  9188 1332.13133   34   20 1348.23577 1310.09150  2.83%  2010 48449s
 42553  9548 1338.67381   33   19 1348.23577 1311.61454  2.72%  1961 50232s
 44844  9934 1347.96498   32   18 1348.23577 1312.48465  2.65%  1928 51716s
 47684 10071 1348.13338   35   17 1348.23577 1313.86030  2.55%  1882 53456s
 49502 10316     cutoff   36      1348.23577 1314.36962  2.51%  1865 55969s
 53211 10731 1340.92394   36   15 1348.23577 1316.33368  2.37%  1830 57834s
 56924 10903     cutoff   28      1348.23577 1317.65518  2.27%  1790 59811s
 60310 11214     cutoff   41      1348.23577 1318.78349  2.18%  1760 61589s
 64113 11334 1330.47034   31   22 1348.23577 1320.17784  2.08%  1725 63379s
 64743 11334 1347.74648   33   18 1348.23577 1320.31700  2.07%  1718 63380s
 68048 11373 1340.10031   35   17 1348.23577 1321.49227  1.98%  1686 64773s
 71364 11436     cutoff   45      1348.23577 1322.12171  1.94%  1658 66389s
 74179 11493 1347.18319   43    9 1348.23577 1322.94184  1.88%  1641 67990s
 76760 11462 1342.92488   35   18 1348.23577 1323.35204  1.85%  1624 69944s
 79398 11384 1338.03479   26   25 1348.23577 1324.03099  1.80%  1608 71564s
 79642 11384     cutoff   25      1348.23577 1324.20734  1.78%  1606 71565s
 81992 11309 1344.24888   40   14 1348.23577 1324.46645  1.76%  1592 73165s
 84890 11174 1337.27922   38   13 1348.23577 1325.06338  1.72%  1572 75050s
 87996 10958     cutoff   41      1348.23577 1325.78713  1.67%  1553 76842s
 90683 10590 1344.56067   43    9 1348.23577 1326.16340  1.64%  1536 78449s
 94240 10246     cutoff   42      1348.23577 1327.27562  1.55%  1518 79934s
 97965  9926     cutoff   32      1348.23577 1328.65505  1.45%  1501 81282s
 101213  9414 1340.32241   41   10 1348.23577 1329.12952  1.42%  1483 82781s
 105265  8893 1337.28203   43   10 1348.23577 1330.11196  1.34%  1462 84018s
 109082  8334     cutoff   31      1348.23577 1330.63842  1.31%  1441 85852s
 112486  7666     cutoff   33      1348.23577 1331.36145  1.25%  1432 87306s
 116263  7006     cutoff   40      1348.23577 1332.02407  1.20%  1418 88857s
H116422  7006                    1348.2357676 1332.03566  1.20%  1417 88857s
 119731  6229     cutoff   38      1348.23577 1333.21354  1.11%  1404 90504s
H120097  6229                    1348.2357674 1333.28628  1.11%  1402 90504s
H122027  6229                    1348.2357668 1333.44233  1.10%  1394 90504s
 123548  5533 1337.29648   42   10 1348.23577 1333.95609  1.06%  1387 91951s
 127063  4837 1342.29258   37   14 1348.23577 1334.58900  1.01%  1369 93507s

Cutting planes:
  Gomory: 1
  Implied bound: 531
  MIR: 1619
  Flow cover: 2138
  RLT: 36
  Relax-and-lift: 229

Explored 130245 nodes (176244836 simplex iterations) in 93512.32 seconds (176042.65 work units)
Thread count was 36 (of 36 available processors)

Solution count 6: 1348.24 1348.86 1349.03 ... 18310.6

Optimal solution found (tolerance 1.00e-02)
Best objective 1.348235768748e+03, best bound 1.335765288020e+03, gap 0.9249%
Termination condition:  optimal
# ==========================================================
# = Solver Results                                         =
# ==========================================================
# ----------------------------------------------------------
#   Problem Information
# ----------------------------------------------------------
Problem: 
- Name: x1
  Lower bound: 1335.7652880202804
  Upper bound: 1348.2357687478236
  Number of objectives: 1
  Number of constraints: 364204
  Number of variables: 258595
  Number of binary variables: 45
  Number of integer variables: 45
  Number of continuous variables: 258550
  Number of nonzeros: 939468
  Sense: minimize
# ----------------------------------------------------------
#   Solver Information
# ----------------------------------------------------------
Solver: 
- Status: ok
  Return code: 0
  Message: Model was solved to optimality (subject to tolerances), and an optimal solution is available.
  Termination condition: optimal
  Termination message: Model was solved to optimality (subject to tolerances), and an optimal solution is available.
  Wall time: 93512.3248989582
  Error rc: 0
  Time: 93515.40622186661
# ----------------------------------------------------------
#   Solution Information
# ----------------------------------------------------------
Solution: 
- number of solutions: 0
  number of solutions displayed: 0
# ============================================================================= #
# ============================================================================= #
fixing: vNetworkInvest[2030,bus080,bus099,cac1]
fixing: vNetworkInvest[2030,bus015,bus017,cac1]
fixing: vNetworkInvest[2030,bus023,bus032,cac2]
fixing: vNetworkInvest[2030,bus008,bus030,cac1]
fixing: vNetworkInvest[2030,bus065,bus068,cac1]
fixing: vNetworkInvest[2030,bus003,bus005,cac1]
fixing: vNetworkInvest[2030,bus008,bus005,cac1]
fixing: vNetworkInvest[2030,bus001,bus003,cac1]
fixing: vNetworkInvest[2030,bus038,bus065,cac1]
fixing: vNetworkInvest[2030,bus082,bus083,cac1]
fixing: vNetworkInvest[2030,bus015,bus033,cac2]
fixing: vNetworkInvest[2030,bus017,bus113,cac2]
fixing: vNetworkInvest[2030,bus093,bus094,cac1]
fixing: vNetworkInvest[2030,bus023,bus024,cac1]
fixing: vNetworkInvest[2030,bus026,bus030,cac2]
fixing: vNetworkInvest[2030,bus012,bus117,cac1]
fixing: vNetworkInvest[2030,bus068,bus069,cac1]
fixing: vNetworkInvest[2030,bus069,bus077,cac2]
fixing: vNetworkInvest[2030,bus005,bus006,cac1]
fixing: vNetworkInvest[2030,bus030,bus038,cac1]
fixing: vNetworkInvest[2030,bus099,bus100,cac2]
fixing: vNetworkInvest[2030,bus023,bus032,cac1]
fixing: vNetworkInvest[2030,bus094,bus100,cac2]
fixing: vNetworkInvest[2030,bus015,bus033,cac1]
fixing: vNetworkInvest[2030,bus017,bus113,cac1]
fixing: vNetworkInvest[2030,bus074,bus075,cac1]
fixing: vNetworkInvest[2030,bus026,bus030,cac1]
fixing: vNetworkInvest[2030,bus025,bus027,cac2]
fixing: vNetworkInvest[2030,bus038,bus037,cac2]
fixing: vNetworkInvest[2030,bus069,bus077,cac1]
fixing: vNetworkInvest[2030,bus077,bus082,cac1]
fixing: vNetworkInvest[2030,bus099,bus100,cac1]
fixing: vNetworkInvest[2030,bus080,bus099,cac2]
fixing: vNetworkInvest[2030,bus065,bus068,cac2]
fixing: vNetworkInvest[2030,bus003,bus005,cac2]
fixing: vNetworkInvest[2030,bus038,bus065,cac2]
fixing: vNetworkInvest[2030,bus094,bus100,cac1]
fixing: vNetworkInvest[2030,bus008,bus005,cac2]
fixing: vNetworkInvest[2030,bus082,bus083,cac2]
fixing: vNetworkInvest[2030,bus025,bus027,cac1]
fixing: vNetworkInvest[2030,bus038,bus037,cac1]
fixing: vNetworkInvest[2030,bus093,bus094,cac2]
fixing: vNetworkInvest[2030,bus068,bus069,cac2]
fixing: vNetworkInvest[2030,bus033,bus037,cac1]
fixing: vNetworkInvest[2030,bus005,bus006,cac2]
Number of fixed variables:  45
# ============================================================================= #
# ============================================================================= #
WARNING: Implicitly replacing the Component attribute dual (type=<class
'pyomo.core.base.suffix.Suffix'>) on block 'openStarNet - Open Version of the
StartNetLite Model (Long Term Transmission Expansion Planning) - Version 1.0.0
- January 16, 2023' with a new Component (type=<class
'pyomo.core.base.suffix.Suffix'>). This is usually indicative of a modelling
error. To avoid this warning, use block.del_component() and
block.add_component().
WARNING: Implicitly replacing the Component attribute rc (type=<class
'pyomo.core.base.suffix.Suffix'>) on block 'openStarNet - Open Version of the
StartNetLite Model (Long Term Transmission Expansion Planning) - Version 1.0.0
- January 16, 2023' with a new Component (type=<class
'pyomo.core.base.suffix.Suffix'>). This is usually indicative of a modelling
error. To avoid this warning, use block.del_component() and
block.add_component().
# ==========================================================
# = Solver Results                                         =
# ==========================================================
# ----------------------------------------------------------
#   Problem Information
# ----------------------------------------------------------
Problem: 
- Name: x1
  Lower bound: 1348.235768747827
  Upper bound: 1348.235768747827
  Number of objectives: 1
  Number of constraints: 364204
  Number of variables: 258550
  Number of binary variables: 0
  Number of integer variables: 0
  Number of continuous variables: 258550
  Number of nonzeros: 894243
  Sense: minimize
# ----------------------------------------------------------
#   Solver Information
# ----------------------------------------------------------
Solver: 
- Status: ok
  Return code: 0
  Message: Model was solved to optimality (subject to tolerances), and an optimal solution is available.
  Termination condition: optimal
  Termination message: Model was solved to optimality (subject to tolerances), and an optimal solution is available.
  Wall time: 2.951653003692627
  Error rc: 0
  Time: 6.517485618591309
# ----------------------------------------------------------
#   Solution Information
# ----------------------------------------------------------
Solution: 
- number of solutions: 0
  number of solutions displayed: 0
Solving                               ...  93741 s
Objective function value                   1348.24 M€
Objective function value                   1348.235768747827
Writing         cost summary results  ...  0 s
Writing           investment results  ...  0 s
Writing    network operation results  ...  1 s
Writing generation operation results  ...  2 s
Writing        ESS operation results  ...  0 s
Traceback (most recent call last):
  File "/lustre1/scratch/348/vsc34888/JointResearch/05.Models/06.Benchmarking/D.Representative_days_based_on_RES_and_Demand/oSN_Main_DCOPF.py", line 1690, in <module>
    main(openStarNet)
  File "/lustre1/scratch/348/vsc34888/JointResearch/05.Models/06.Benchmarking/D.Representative_days_based_on_RES_and_Demand/oSN_Main_DCOPF.py", line 137, in main
    model = saving_results(args.dir, args.case, args.solver, model, model)
            ^^^^^^^^^^^^^^^^^^^^^^^^^^^^^^^^^^^^^^^^^^^^^^^^^^^^^^^^^^^^^^
  File "/lustre1/scratch/348/vsc34888/JointResearch/05.Models/06.Benchmarking/D.Representative_days_based_on_RES_and_Demand/oSN_Main_DCOPF.py", line 1662, in saving_results
    OutputResults = pd.Series(data=[optmodel.dual[optmodel.eBalanceP[p,sc,st,n,nd]]*1e3/model.pScenProb[p,sc]()/model.pLoadLevelDuration[n]() for p,sc,n,nd,st in model.psnnd*model.st if (st,n) in model.s2n], index=pd.MultiIndex.from_tuples(model.psnnd))
                                   ^^^^^^^^^^^^^^^^^^^^^^^^^^^^^^^^^^^^^^^^^^^^^^^^^^^^^^^^^^^^^^^^^^^^^^^^^^^^^^^^^^^^^^^^^^^^^^^^^^^^^^^^^^^^^^^^^^^^^^^^^^^^^^^^^^^^^^^^^^^^^^^^^^^^^^^^^^^^^^^^^^^^^^^^^^^
  File "/lustre1/scratch/348/vsc34888/JointResearch/05.Models/06.Benchmarking/D.Representative_days_based_on_RES_and_Demand/oSN_Main_DCOPF.py", line 1662, in <listcomp>
    OutputResults = pd.Series(data=[optmodel.dual[optmodel.eBalanceP[p,sc,st,n,nd]]*1e3/model.pScenProb[p,sc]()/model.pLoadLevelDuration[n]() for p,sc,n,nd,st in model.psnnd*model.st if (st,n) in model.s2n], index=pd.MultiIndex.from_tuples(model.psnnd))
                                                  ~~~~~~~~~~~~~~~~~~^^^^^^^^^^^^^^
  File "/data/leuven/348/vsc34888/miniconda3/envs/Jr23/lib/python3.11/site-packages/pyomo/core/base/indexed_component.py", line 649, in __getitem__
    return self._getitem_when_not_present(index)
           ^^^^^^^^^^^^^^^^^^^^^^^^^^^^^^^^^^^^^
  File "/data/leuven/348/vsc34888/miniconda3/envs/Jr23/lib/python3.11/site-packages/pyomo/core/base/constraint.py", line 830, in _getitem_when_not_present
    raise KeyError(idx)
KeyError: (2030, 'sc01', 'sti209', '01-03 18:00:00+01:00', 'bus009')

 #### Academic research license - for non-commercial use only #### 

IEEE118_ByStages_nc300
/lustre1/scratch/348/vsc34888/JointResearch/05.Models/06.Benchmarking/D.Representative_days_based_on_RES_and_Demand
gurobi
['oSN_Main_DCOPF.py', '--case', 'IEEE118_ByStages_nc300']
Namespace(case='IEEE118_ByStages_nc300', dir='/lustre1/scratch/348/vsc34888/JointResearch/05.Models/06.Benchmarking/D.Representative_days_based_on_RES_and_Demand', solver='gurobi')
Namespace(case='IEEE118_ByStages_nc300', dir='/lustre1/scratch/348/vsc34888/JointResearch/05.Models/06.Benchmarking/D.Representative_days_based_on_RES_and_Demand', solver='gurobi')
Reading    input data                 ...  1 s
Setting up input data                 ...  2 s
Generating objective function         ...  2 s
Generating operation & investment     ...  0 s
Generating balance                    ...  25 s
Generating storage operation          ...  0 s
Generating generation commitment      ...  62 s
Generating generation capacity        ...  61 s
Generating network    capacity        ...  78 s
Generating network    constraints     ...  204 s
Econometric analysis  constraints     ...  0 s
slurmstepd: error: *** JOB 55402826 ON r27i27n19 CANCELLED AT 2023-12-07T14:07:38 DUE TO TIME LIMIT ***
